
Gurobi 11.0.1 (win64) logging started Mon May 13 15:46:04 2024

Set parameter LogFile to value "output/solver_log43.txt"
Gurobi Optimizer version 11.0.1 build v11.0.1rc0 (win64 - Windows 11.0 (22631.2))

CPU model: 11th Gen Intel(R) Core(TM) i7-1165G7 @ 2.80GHz, instruction set [SSE2|AVX|AVX2|AVX512]
Thread count: 4 physical cores, 8 logical processors, using up to 8 threads

Optimize a model with 3182 rows, 897 columns and 59335 nonzeros
Model fingerprint: 0x0a9e5234
Variable types: 248 continuous, 649 integer (649 binary)
Coefficient statistics:
  Matrix range     [4e-01, 1e+05]
  Objective range  [1e+00, 1e+02]
  Bounds range     [1e+00, 1e+00]
  RHS range        [1e-02, 1e+05]

User MIP start produced solution with objective 78115.8 (0.01s)
User MIP start produced solution with objective 78115.8 (0.01s)
Loaded user MIP start with objective 78115.8

Presolve removed 415 rows and 329 columns
Presolve time: 0.04s
Presolved: 2767 rows, 568 columns, 54397 nonzeros
Variable types: 236 continuous, 332 integer (328 binary)

Root relaxation: objective 7.896448e+04, 749 iterations, 0.04 seconds (0.08 work units)

    Nodes    |    Current Node    |     Objective Bounds      |     Work
 Expl Unexpl |  Obj  Depth IntInf | Incumbent    BestBd   Gap | It/Node Time

     0     0 78964.4817    0   38 78115.7529 78964.4817  1.09%     -    0s
     0     0 78904.5290    0   53 78115.7529 78904.5290  1.01%     -    0s
     0     0 78904.5125    0   37 78115.7529 78904.5125  1.01%     -    0s
     0     0 78694.2221    0   33 78115.7529 78694.2221  0.74%     -    0s
     0     0 78694.2152    0   26 78115.7529 78694.2152  0.74%     -    0s
     0     2 78694.2152    0   25 78115.7529 78694.2152  0.74%     -    0s
  2120   621 78153.2239   32   27 78115.7529 78211.1725  0.12%  32.1    5s
  7157  1290 infeasible   78      78115.7529 78211.1725  0.12%  24.0   10s
 14534  4032 infeasible   74      78115.7529 78211.1725  0.12%  20.6   15s
 21188  6305 78211.1699   40    7 78115.7529 78211.1725  0.12%  19.6   20s
 38604  7842 78211.1717 2844    6 78115.7529 78211.1725  0.12%  14.1   25s
 52578  8931 infeasible   80      78115.7529 78211.1725  0.12%  11.7   30s
 63611 10771 78157.1532   82    8 78115.7529 78211.1725  0.12%  11.4   35s
 77346 12880 78211.1725   73    3 78115.7529 78211.1725  0.12%  11.1   40s
 85373 14562 78211.1689   77    9 78115.7529 78211.1725  0.12%  11.5   45s
 103414 16235     cutoff   82      78115.7529 78211.1725  0.12%  10.8   50s
 111269 18237 78211.1717   72    6 78115.7529 78211.1725  0.12%  11.3   55s
 117165 19906 infeasible   87      78115.7529 78211.1725  0.12%  11.9   60s

Cutting planes:
  Inf proof: 1

Explored 117269 nodes (1395944 simplex iterations) in 60.01 seconds (117.15 work units)
Thread count was 8 (of 8 available processors)

Solution count 2: 78115.8 78115.8 

Time limit reached
Best objective 7.811575294194e+04, best bound 7.821117254276e+04, gap 0.1222%
